
n_res = 6;
rcap = [44, 48, 50, 59, 1383, 1288];
rtype = [1, 1, 1, 1, 2, 2];
n_tasks = 100;
modes =  [{1, 2, 3}, {4, 5, 6}, {7, 8, 9}, {10, 11, 12}, {13, 14, 15}, {16, 17, 18}, {19, 20, 21}, {22, 23, 24}, {25, 26, 27}, {28, 29, 30}, {31, 32, 33}, {34, 35, 36}, {37, 38, 39}, {40, 41, 42}, {43, 44, 45}, {46, 47, 48}, {49, 50, 51}, {52, 53, 54}, {55, 56, 57}, {58, 59, 60}, {61, 62, 63}, {64, 65, 66}, {67, 68, 69}, {70, 71, 72}, {73, 74, 75}, {76, 77, 78}, {79, 80, 81}, {82, 83, 84}, {85, 86, 87}, {88, 89, 90}, {91, 92, 93}, {94, 95, 96}, {97, 98, 99}, {100, 101, 102}, {103, 104, 105}, {106, 107, 108}, {109, 110, 111}, {112, 113, 114}, {115, 116, 117}, {118, 119, 120}, {121, 122, 123}, {124, 125, 126}, {127, 128, 129}, {130, 131, 132}, {133, 134, 135}, {136, 137, 138}, {139, 140, 141}, {142, 143, 144}, {145, 146, 147}, {148, 149, 150}, {151, 152, 153}, {154, 155, 156}, {157, 158, 159}, {160, 161, 162}, {163, 164, 165}, {166, 167, 168}, {169, 170, 171}, {172, 173, 174}, {175, 176, 177}, {178, 179, 180}, {181, 182, 183}, {184, 185, 186}, {187, 188, 189}, {190, 191, 192}, {193, 194, 195}, {196, 197, 198}, {199, 200, 201}, {202, 203, 204}, {205, 206, 207}, {208, 209, 210}, {211, 212, 213}, {214, 215, 216}, {217, 218, 219}, {220, 221, 222}, {223, 224, 225}, {226, 227, 228}, {229, 230, 231}, {232, 233, 234}, {235, 236, 237}, {238, 239, 240}, {241, 242, 243}, {244, 245, 246}, {247, 248, 249}, {250, 251, 252}, {253, 254, 255}, {256, 257, 258}, {259, 260, 261}, {262, 263, 264}, {265, 266, 267}, {268, 269, 270}, {271, 272, 273}, {274, 275, 276}, {277, 278, 279}, {280, 281, 282}, {283, 284, 285}, {286, 287, 288}, {289, 290, 291}, {292, 293, 294}, {295, 296, 297}, {298, 299, 300}];
succ =  [{55, 52, 40, 37, 35, 34, 31, 28, 27, 26, 23, 22, 19}, {65, 62, 55, 52, 51, 44, 41, 39, 38, 37, 34, 29, 28, 23}, {65, 52, 51, 47, 45, 41, 38, 36, 35, 34, 32, 31, 29}, {52, 48, 37, 36, 29, 9}, {62, 37, 28, 25, 14}, {65, 64, 62, 55, 52, 44, 43, 42, 38, 36, 29, 28}, {59, 57, 55, 54, 52, 51, 46, 42, 38, 28, 25}, {58, 54, 48, 45, 44, 37, 34, 32, 22}, {65, 55, 54, 41, 38, 28, 23}, {65, 62, 58, 55, 53, 47, 45, 35, 34, 29}, {65, 64, 62, 61, 52, 48, 47, 44, 33, 29}, {62, 60, 55, 48, 47, 45, 41, 23}, {64, 60, 59, 57, 55, 54, 52, 50, 48, 46, 45, 43, 42}, {99, 61, 45, 44, 38, 27}, {69, 65, 61, 58, 54, 48, 42, 38, 31}, {80, 65, 61, 60, 59, 58, 57, 54, 53, 50, 47, 45, 41}, {64, 63, 62, 59, 52, 50, 48, 45, 44, 33}, {63, 62, 59, 58, 55, 46, 44, 37, 35}, {62, 59, 54, 53, 48, 46, 41, 33}, {65, 64, 60, 58, 55, 53, 46, 29}, {65, 62, 61, 52, 47, 41, 37}, {100, 65, 62, 61, 59, 57, 50, 47, 42, 41}, {80, 64, 59, 58, 57, 53, 50, 49, 46, 43}, {80, 69, 60, 58, 57, 54, 53, 47, 41}, {74, 65, 64, 58, 50, 48, 45, 43}, {99, 80, 74, 71, 69, 65, 64, 62, 61, 60, 54, 45}, {67, 65, 64, 58, 29}, {99, 80, 74, 69, 63, 60, 58, 47, 45}, {80, 74, 66, 63, 59, 57, 56, 54, 50}, {99, 80, 74, 69, 64, 61, 60, 51, 49}, {80, 74, 62, 59, 57, 44}, {100, 71, 69, 60, 42}, {100, 99, 77, 74, 71, 69, 68, 60, 57, 56, 49}, {99, 80, 74, 71, 63, 61, 57, 56, 49}, {99, 69, 68, 64, 61, 60, 49, 48}, {99, 96, 80, 75, 74, 72, 71, 70, 68, 67, 66, 63, 60, 56}, {100, 99, 96, 80, 69, 66, 64, 60, 56, 53}, {100, 80, 79, 63, 60, 53, 49}, {96, 95, 75, 74, 71, 69, 68, 61, 59, 48}, {96, 93, 80, 71, 66, 60, 58, 56, 54}, {99, 74, 68, 64, 63, 56, 49}, {99, 93, 80, 77, 74, 68, 56, 49}, {100, 99, 96, 75, 72, 70, 68, 67, 66, 63, 61, 56}, {77, 60, 53, 49}, {100, 77, 56, 49}, {100, 99, 96, 95, 92, 79, 74, 72, 71, 69, 67, 61}, {96, 90, 77, 72, 70, 66, 56}, {98, 97, 94, 93, 92, 90, 88, 80, 79, 78, 77, 73, 72, 66}, {98, 97, 96, 95, 91, 85, 75, 73, 72, 70, 67, 66}, {98, 95, 94, 92, 89, 88, 87, 79, 77, 73, 71, 70, 69}, {93, 92, 90, 87, 85, 79, 78, 73, 72, 71, 68, 67}, {96, 91, 90, 79, 77, 67, 58}, {93, 92, 90, 88, 87, 85, 78, 72, 71, 70, 68}, {100, 88, 87, 79, 77, 76, 75, 73, 72, 68}, {96, 95, 92, 90, 87, 84, 80, 77, 72, 70}, {97, 95, 94, 92, 91, 88, 87, 85, 83, 79, 78, 73}, {96, 95, 89, 87, 85, 75, 73, 70}, {97, 92, 89, 88, 87, 86, 85, 78, 70}, {98, 90, 87, 86, 79, 70}, {98, 89, 88, 86, 85, 84, 83, 82, 78}, {93, 91, 90, 89, 88, 84, 83, 82, 77}, {93, 88, 85, 84, 83, 72}, {93, 91, 88, 87, 85, 82, 77}, {93, 90, 87, 86, 84, 83, 77}, {92, 90, 87, 85, 78}, {87, 83, 81, 76}, {94, 88, 83, 76}, {91, 83, 82, 81}, {93, 86, 85, 84}, {83, 81, 76}, {91, 81, 76}, {89, 86, 81}, {84, 82, 81}, {86, 84, 81}, {90, 81}, {82}, {81}, {81}, {84}, {85}, {}, {}, {}, {}, {}, {}, {}, {}, {}, {}, {}, {}, {}, {}, {}, {}, {}, {}, {}, {}];
n_opt = 300;
dur = [9, 23, 29, 22, 29, 30, 3, 5, 26, 7, 17, 24, 1, 9, 23, 3, 18, 19, 4, 8, 15, 10, 17, 20, 7, 10, 11, 11, 19, 29, 22, 26, 30, 3, 9, 26, 5, 6, 22, 4, 5, 6, 7, 9, 28, 5, 19, 21, 11, 19, 27, 1, 22, 23, 3, 10, 25, 11, 23, 26, 12, 19, 27, 9, 13, 15, 22, 26, 27, 1, 5, 20, 17, 20, 21, 7, 23, 24, 6, 14, 28, 3, 5, 23, 10, 13, 16, 14, 21, 23, 2, 14, 28, 13, 27, 28, 7, 16, 27, 11, 24, 29, 8, 9, 10, 2, 5, 18, 22, 26, 27, 14, 18, 22, 2, 10, 29, 10, 11, 22, 16, 20, 28, 6, 21, 22, 2, 3, 19, 1, 7, 24, 11, 12, 24, 1, 24, 25, 9, 16, 21, 1, 8, 23, 4, 6, 24, 2, 5, 12, 8, 10, 22, 3, 23, 28, 3, 15, 20, 8, 17, 23, 3, 5, 7, 16, 21, 29, 19, 22, 24, 22, 25, 26, 1, 24, 28, 5, 6, 19, 19, 22, 23, 6, 8, 16, 1, 17, 27, 17, 23, 25, 25, 26, 27, 12, 13, 29, 10, 22, 29, 10, 12, 14, 4, 10, 20, 8, 22, 23, 4, 28, 29, 23, 27, 30, 1, 3, 30, 5, 17, 18, 11, 12, 22, 10, 11, 30, 15, 19, 29, 3, 12, 23, 12, 17, 28, 15, 18, 30, 6, 12, 20, 1, 27, 30, 10, 28, 30, 20, 22, 28, 24, 25, 29, 6, 11, 25, 10, 13, 20, 4, 24, 29, 1, 24, 29, 4, 9, 24, 18, 22, 30, 5, 13, 28, 7, 24, 26, 14, 18, 30, 3, 11, 18, 2, 7, 27, 7, 10, 28, 21, 27, 28, 5, 14, 16, 6, 7, 19];
rreq = [|3, 3, 3, 4, 4, 4, 4, 4, 4, 3, 2, 2, 2, 2, 2, 3, 1, 1, 2, 2, 2, 5, 4, 4, 5, 5, 5, 3, 3, 3, 1, 1, 1, 2, 2, 2, 3, 3, 1, 5, 4, 3, 2, 1, 1, 2, 2, 1, 3, 2, 2, 2, 2, 2, 5, 5, 5, 4, 2, 2, 2, 1, 1, 3, 3, 2, 2, 2, 1, 4, 4, 4, 4, 4, 4, 4, 3, 3, 3, 2, 1, 3, 2, 2, 5, 4, 3, 1, 1, 1, 3, 2, 2, 5, 4, 3, 4, 4, 4, 3, 2, 2, 2, 1, 1, 4, 4, 2, 1, 1, 1, 2, 1, 1, 2, 2, 2, 5, 4, 4, 4, 4, 4, 2, 1, 1, 5, 4, 3, 3, 2, 2, 4, 3, 2, 4, 3, 3, 5, 4, 2, 5, 5, 5, 5, 4, 3, 3, 3, 3, 2, 2, 2, 5, 2, 1, 3, 2, 2, 4, 4, 4, 2, 1, 1, 3, 1, 1, 4, 4, 4, 1, 1, 1, 3, 3, 2, 5, 3, 3, 4, 4, 4, 4, 2, 2, 5, 5, 5, 5, 4, 4, 4, 3, 3, 3, 1, 1, 2, 1, 1, 4, 4, 3, 4, 4, 2, 2, 1, 1, 4, 3, 3, 4, 4, 3, 3, 3, 2, 3, 3, 3, 3, 2, 1, 3, 1, 1, 3, 3, 2, 4, 2, 2, 4, 4, 4, 4, 3, 3, 5, 4, 4, 2, 1, 1, 5, 4, 4, 4, 3, 2, 3, 3, 3, 4, 4, 4, 1, 1, 1, 5, 5, 5, 5, 5, 5, 5, 3, 2, 5, 4, 4, 4, 3, 2, 5, 4, 3, 5, 4, 2, 3, 1, 1, 5, 3, 1, 2, 2, 1, 5, 5, 5, 4, 4, 4, 3, 2, 2
 |1, 1, 1, 2, 1, 1, 3, 3, 2, 3, 2, 2, 5, 5, 5, 2, 2, 2, 4, 4, 3, 4, 4, 4, 2, 2, 2, 3, 3, 3, 4, 2, 2, 4, 2, 2, 3, 2, 2, 3, 3, 2, 1, 1, 1, 4, 4, 4, 3, 3, 1, 2, 2, 2, 4, 4, 4, 3, 3, 3, 4, 3, 2, 3, 2, 2, 2, 1, 1, 3, 3, 3, 5, 5, 5, 5, 4, 4, 4, 3, 3, 3, 2, 2, 3, 2, 2, 5, 4, 4, 1, 1, 1, 4, 4, 4, 4, 4, 3, 4, 4, 4, 4, 3, 3, 3, 2, 2, 3, 2, 2, 5, 4, 4, 5, 4, 4, 4, 4, 3, 1, 1, 1, 4, 3, 3, 2, 2, 2, 4, 3, 2, 4, 2, 2, 5, 4, 3, 5, 5, 5, 5, 4, 3, 2, 1, 1, 1, 1, 1, 3, 3, 2, 4, 3, 1, 4, 4, 2, 5, 3, 3, 4, 4, 4, 5, 3, 1, 3, 3, 1, 4, 3, 2, 5, 3, 3, 4, 3, 2, 5, 5, 5, 3, 1, 1, 5, 3, 3, 5, 4, 2, 3, 3, 3, 1, 1, 1, 3, 2, 2, 4, 2, 2, 3, 3, 2, 3, 3, 3, 5, 3, 3, 3, 3, 2, 5, 3, 2, 4, 4, 4, 3, 2, 1, 4, 4, 4, 2, 2, 2, 4, 4, 4, 2, 2, 1, 5, 5, 5, 4, 3, 3, 4, 4, 3, 4, 2, 2, 2, 1, 1, 2, 2, 1, 4, 3, 2, 4, 3, 3, 5, 3, 3, 5, 3, 3, 4, 3, 3, 3, 2, 1, 2, 2, 2, 5, 5, 5, 5, 2, 1, 4, 4, 2, 4, 2, 1, 3, 2, 2, 4, 3, 2, 3, 3, 2, 3, 3, 3
 |4, 4, 4, 5, 3, 3, 3, 2, 2, 2, 2, 2, 5, 4, 2, 1, 1, 1, 1, 1, 1, 3, 2, 2, 2, 2, 2, 5, 3, 1, 5, 5, 5, 3, 1, 1, 2, 2, 2, 4, 3, 3, 2, 2, 2, 3, 2, 2, 3, 3, 3, 4, 4, 3, 3, 2, 2, 5, 3, 3, 3, 3, 2, 5, 4, 4, 2, 1, 1, 4, 3, 1, 3, 2, 2, 2, 2, 2, 4, 4, 3, 4, 3, 3, 4, 3, 3, 2, 1, 1, 4, 2, 2, 5, 3, 2, 4, 3, 3, 2, 2, 2, 4, 3, 3, 4, 3, 3, 3, 3, 3, 4, 3, 2, 2, 1, 1, 5, 5, 5, 2, 2, 2, 3, 2, 2, 5, 4, 2, 3, 2, 1, 4, 3, 3, 5, 3, 3, 5, 2, 1, 4, 4, 3, 4, 4, 3, 5, 2, 2, 4, 3, 3, 1, 1, 1, 1, 1, 1, 3, 2, 2, 5, 2, 1, 3, 3, 3, 4, 4, 4, 4, 2, 2, 2, 2, 2, 4, 3, 3, 4, 2, 2, 5, 5, 5, 3, 3, 3, 4, 2, 2, 2, 1, 1, 3, 3, 1, 3, 2, 2, 3, 3, 3, 3, 3, 3, 4, 2, 2, 4, 4, 4, 2, 2, 2, 5, 4, 4, 3, 2, 2, 5, 4, 3, 4, 3, 3, 2, 2, 1, 4, 4, 4, 4, 4, 3, 4, 4, 3, 3, 2, 2, 3, 3, 2, 3, 3, 2, 4, 4, 3, 3, 2, 2, 4, 3, 3, 5, 4, 4, 4, 3, 3, 5, 5, 5, 3, 2, 2, 3, 3, 3, 4, 4, 4, 3, 1, 1, 3, 2, 2, 2, 2, 2, 4, 4, 4, 3, 3, 3, 4, 3, 3, 4, 2, 2, 5, 4, 2
 |4, 3, 1, 4, 3, 2, 4, 3, 2, 4, 2, 2, 5, 4, 3, 3, 2, 2, 2, 2, 2, 5, 4, 4, 5, 5, 5, 5, 5, 5, 5, 5, 5, 4, 4, 4, 1, 1, 1, 5, 4, 4, 3, 2, 2, 3, 2, 1, 5, 2, 1, 4, 4, 4, 3, 3, 1, 5, 2, 2, 5, 5, 5, 5, 4, 3, 4, 3, 2, 3, 3, 2, 3, 3, 1, 1, 1, 1, 2, 2, 2, 4, 4, 3, 4, 4, 3, 3, 2, 2, 5, 4, 4, 3, 3, 3, 5, 4, 4, 4, 3, 3, 5, 4, 3, 2, 2, 2, 4, 4, 4, 3, 3, 3, 5, 4, 4, 1, 1, 1, 2, 2, 2, 3, 2, 2, 5, 3, 3, 2, 2, 2, 4, 2, 1, 3, 3, 3, 2, 2, 2, 5, 4, 4, 3, 3, 2, 2, 2, 1, 4, 3, 2, 1, 1, 1, 3, 3, 3, 4, 2, 1, 1, 1, 1, 3, 2, 2, 4, 3, 3, 4, 3, 3, 5, 2, 2, 3, 3, 3, 3, 3, 2, 4, 2, 2, 4, 4, 4, 3, 3, 2, 4, 3, 3, 4, 2, 2, 2, 1, 1, 4, 3, 3, 3, 2, 2, 3, 3, 3, 2, 1, 1, 3, 3, 3, 4, 3, 2, 2, 2, 1, 3, 2, 2, 5, 4, 4, 1, 1, 1, 4, 2, 1, 3, 2, 2, 4, 3, 2, 2, 1, 1, 4, 4, 4, 3, 2, 1, 3, 2, 1, 5, 4, 3, 3, 1, 1, 1, 1, 1, 3, 2, 2, 3, 3, 3, 3, 1, 1, 3, 2, 2, 2, 1, 1, 3, 2, 2, 3, 3, 3, 3, 3, 3, 4, 2, 2, 5, 3, 2, 3, 3, 3, 3, 3, 3, 4, 3, 1
 |8, 7, 6, 13, 9, 2, 14, 13, 12, 14, 11, 10, 11, 6, 2, 16, 7, 6, 22, 17, 14, 18, 11, 7, 26, 26, 20, 28, 27, 27, 21, 20, 20, 18, 18, 10, 19, 19, 1, 26, 19, 14, 20, 19, 19, 20, 15, 3, 21, 21, 8, 18, 7, 3, 15, 9, 3, 16, 16, 13, 19, 18, 17, 25, 19, 16, 24, 22, 9, 2, 2, 2, 15, 8, 1, 24, 24, 18, 21, 17, 13, 19, 17, 7, 27, 25, 25, 25, 18, 12, 16, 16, 14, 24, 23, 23, 28, 18, 14, 6, 6, 5, 29, 29, 29, 11, 11, 9, 28, 26, 25, 10, 8, 7, 14, 12, 9, 23, 19, 12, 24, 19, 8, 14, 7, 3, 26, 26, 26, 13, 12, 5, 26, 13, 10, 11, 9, 9, 27, 25, 25, 23, 20, 19, 15, 13, 12, 27, 24, 20, 29, 27, 23, 13, 11, 11, 6, 5, 2, 11, 11, 11, 20, 18, 17, 24, 19, 11, 16, 15, 14, 26, 25, 20, 19, 11, 10, 21, 16, 11, 28, 25, 22, 16, 13, 11, 12, 12, 12, 25, 21, 19, 21, 21, 21, 10, 6, 5, 4, 3, 1, 25, 16, 13, 16, 8, 5, 18, 10, 8, 22, 18, 16, 12, 10, 9, 23, 20, 19, 21, 16, 8, 20, 10, 9, 12, 12, 12, 21, 17, 13, 20, 14, 14, 21, 18, 17, 9, 6, 5, 25, 22, 19, 16, 12, 8, 12, 11, 10, 12, 10, 10, 12, 10, 10, 27, 13, 8, 5, 5, 5, 27, 25, 25, 18, 16, 14, 22, 19, 17, 17, 17, 17, 10, 5, 1, 22, 18, 18, 21, 19, 19, 11, 11, 8, 16, 11, 9, 22, 22, 22, 25, 24, 20, 21, 14, 9, 9, 7, 6
 |14, 11, 7, 20, 18, 18, 11, 7, 7, 17, 12, 10, 9, 8, 7, 28, 17, 14, 3, 3, 3, 9, 7, 3, 19, 14, 12, 30, 23, 17, 24, 23, 22, 5, 5, 4, 25, 18, 5, 2, 1, 1, 20, 19, 18, 12, 9, 7, 13, 13, 12, 21, 12, 8, 14, 14, 12, 23, 23, 23, 28, 26, 26, 16, 15, 7, 14, 12, 10, 21, 15, 12, 8, 5, 3, 19, 10, 5, 25, 25, 24, 15, 11, 6, 16, 9, 7, 26, 24, 23, 19, 14, 4, 1, 1, 1, 24, 20, 16, 19, 10, 4, 14, 12, 7, 22, 17, 16, 15, 9, 6, 29, 29, 28, 25, 23, 23, 19, 15, 13, 23, 19, 16, 18, 10, 10, 21, 20, 20, 19, 10, 6, 22, 22, 22, 20, 14, 11, 3, 2, 2, 22, 13, 9, 13, 11, 7, 15, 15, 15, 22, 21, 8, 11, 7, 7, 9, 8, 6, 24, 22, 22, 9, 5, 5, 27, 24, 22, 17, 14, 10, 14, 13, 8, 23, 19, 5, 21, 21, 21, 16, 12, 7, 18, 16, 4, 24, 20, 15, 26, 24, 19, 24, 14, 12, 19, 14, 6, 10, 9, 9, 26, 16, 7, 11, 10, 8, 18, 17, 11, 19, 13, 9, 14, 8, 7, 23, 20, 19, 26, 22, 20, 29, 27, 25, 28, 28, 27, 24, 18, 9, 13, 11, 7, 25, 17, 7, 12, 10, 10, 22, 19, 17, 8, 8, 4, 15, 13, 13, 11, 7, 3, 13, 12, 12, 11, 11, 10, 14, 14, 10, 27, 21, 13, 23, 14, 7, 27, 16, 8, 28, 16, 9, 20, 12, 11, 14, 14, 9, 18, 13, 8, 14, 14, 12, 13, 6, 3, 6, 5, 3, 16, 10, 7, 27, 26, 25, 23, 16, 10|];